NAME: n300q1000D.tsp, 300 nodes, semilla 333
COMMENT: Problema aleatorio de norma euclidea
DIMENSION: 300
CAPACITY: 1000
EDGE_WEIGHT_TYPE: EUC_2D
NODE_COORD_SECTION
1   0.0000   0.0000
2 -273.0000 -373.0000
3 -371.0000 -268.0000
4 179.0000 469.0000
5 276.0000 -496.0000
6 422.0000 287.0000
7 -499.0000 -363.0000
8 -316.0000  89.0000
9 -162.0000 460.0000
10   1.0000 -59.0000
11 344.0000 303.0000
12 200.0000 -248.0000
13 -28.0000 -410.0000
14 382.0000  85.0000
15 -112.0000 472.0000
16 262.0000 315.0000
17 274.0000 221.0000
18 101.0000  87.0000
19 -307.0000 284.0000
20 209.0000 -451.0000
21 482.0000 441.0000
22 -130.0000  11.0000
23 -336.0000 386.0000
24  97.0000 -186.0000
25 415.0000 209.0000
26 -479.0000 370.0000
27 -95.0000 132.0000
28 242.0000 444.0000
29 -126.0000 -196.0000
30  75.0000 -326.0000
31 194.0000 123.0000
32 -301.0000 -395.0000
33 -440.0000 -479.0000
34 -272.0000 -387.0000
35 489.0000  56.0000
36  88.0000 182.0000
37 -231.0000 311.0000
38 331.0000 -437.0000
39 -94.0000 228.0000
40 336.0000 296.0000
41 -421.0000 -186.0000
42 -192.0000 492.0000
43 410.0000 -423.0000
44 464.0000 302.0000
45  53.0000 -493.0000
46 363.0000 286.0000
47 149.0000 375.0000
48 -321.0000 -352.0000
49 461.0000   8.0000
50 478.0000 157.0000
51 -126.0000 -72.0000
52 -40.0000 -77.0000
53 -253.0000 -55.0000
54 -305.0000 -10.0000
55 -470.0000 460.0000
56  43.0000 -26.0000
57  27.0000  80.0000
58 495.0000 -429.0000
59  36.0000 310.0000
60 124.0000 382.0000
61 326.0000 -485.0000
62 -28.0000 130.0000
63 -468.0000 -299.0000
64 106.0000 235.0000
65 337.0000 161.0000
66 -328.0000 -402.0000
67 415.0000 -404.0000
68  33.0000 329.0000
69 437.0000 -160.0000
70 296.0000 -36.0000
71 -447.0000 -38.0000
72 -80.0000 -168.0000
73 246.0000 -142.0000
74 358.0000 -433.0000
75 -329.0000 -413.0000
76 380.0000 285.0000
77 301.0000 -157.0000
78 -152.0000 -355.0000
79 -475.0000 -75.0000
80  20.0000 -225.0000
81 -194.0000 125.0000
82 -386.0000 208.0000
83 -215.0000 -357.0000
84 -117.0000 274.0000
85 -270.0000 301.0000
86 456.0000 -378.0000
87 326.0000 270.0000
88 -495.0000 -297.0000
89 -483.0000 -341.0000
90 -306.0000 137.0000
91  74.0000 -449.0000
92 226.0000 154.0000
93 -159.0000  13.0000
94 -83.0000 431.0000
95 -280.0000 -10.0000
96 221.0000 -246.0000
97 273.0000 -380.0000
98 289.0000 259.0000
99 -169.0000 -225.0000
100 -154.0000 -59.0000
101  -1.0000 -403.0000
102 173.0000  27.0000
103 378.0000 271.0000
104 -67.0000 -342.0000
105 -392.0000 -430.0000
106 -291.0000  96.0000
107 -122.0000 -301.0000
108 413.0000 213.0000
109 -166.0000 -185.0000
110 -211.0000 -287.0000
111 -417.0000 -270.0000
112 -355.0000 366.0000
113 173.0000  30.0000
114 -105.0000 -120.0000
115 -494.0000 -418.0000
116 466.0000 -406.0000
117 -353.0000 -29.0000
118 433.0000 403.0000
119 412.0000 207.0000
120 -60.0000 -383.0000
121 -386.0000 344.0000
122 -172.0000 188.0000
123 426.0000 183.0000
124 132.0000 462.0000
125 426.0000 474.0000
126 -177.0000 482.0000
127 -249.0000  95.0000
128 293.0000 -277.0000
129 191.0000 -222.0000
130 -150.0000 430.0000
131 474.0000 -295.0000
132 -256.0000 -262.0000
133 328.0000 -66.0000
134 435.0000 -330.0000
135 237.0000 204.0000
136 -211.0000 277.0000
137 351.0000 309.0000
138 228.0000  86.0000
139 399.0000 -493.0000
140 105.0000 214.0000
141 318.0000 254.0000
142 -477.0000 354.0000
143 -29.0000 -146.0000
144 -469.0000 175.0000
145  42.0000  26.0000
146 -216.0000 429.0000
147 -498.0000 -256.0000
148 118.0000 -276.0000
149 258.0000 -267.0000
150  59.0000 445.0000
151 301.0000 -257.0000
152 -118.0000 180.0000
153 428.0000 225.0000
154  -4.0000 157.0000
155 -347.0000  -9.0000
156 -117.0000 -371.0000
157 473.0000 155.0000
158 -320.0000 409.0000
159 -304.0000 -33.0000
160 256.0000 -379.0000
161 -236.0000 436.0000
162 -453.0000 -210.0000
163 -233.0000 -422.0000
164 -210.0000 -16.0000
165 142.0000 121.0000
166 -63.0000 -32.0000
167 -469.0000 192.0000
168 218.0000 -119.0000
169 477.0000 -412.0000
170 203.0000 -303.0000
171 219.0000 379.0000
172 -382.0000 105.0000
173 -127.0000 -88.0000
174   0.0000 352.0000
175 489.0000 442.0000
176 -499.0000 -198.0000
177 -419.0000 105.0000
178 -334.0000 192.0000
179 -148.0000 -487.0000
180  94.0000 191.0000
181 244.0000 -182.0000
182 381.0000 -291.0000
183 -113.0000 -498.0000
184 -443.0000   9.0000
185 153.0000 -299.0000
186 -93.0000 -69.0000
187 465.0000 -466.0000
188  62.0000 -108.0000
189 -242.0000  -1.0000
190 402.0000 -113.0000
191 316.0000 -290.0000
192 129.0000   7.0000
193  46.0000 -295.0000
194 188.0000 171.0000
195 -18.0000 203.0000
196 200.0000 -368.0000
197 -453.0000  48.0000
198 -81.0000  70.0000
199 347.0000  51.0000
200 331.0000 -258.0000
201 137.0000 -235.0000
202 307.0000 474.0000
203 -296.0000 -95.0000
204 263.0000  13.0000
205 161.0000 -378.0000
206  22.0000 340.0000
207 -215.0000  21.0000
208  67.0000 -467.0000
209 -497.0000 339.0000
210 307.0000 -41.0000
211  20.0000 -343.0000
212 -430.0000 -397.0000
213 132.0000 -230.0000
214 295.0000 -158.0000
215 -316.0000 261.0000
216 269.0000 -433.0000
217 -99.0000 324.0000
218 -109.0000 -58.0000
219 120.0000 -172.0000
220 406.0000 -428.0000
221 138.0000 262.0000
222 213.0000 -495.0000
223 -319.0000  45.0000
224 -155.0000  60.0000
225  15.0000 385.0000
226 198.0000 485.0000
227 239.0000 -461.0000
228  38.0000 481.0000
229 -202.0000 218.0000
230 469.0000 -487.0000
231 -379.0000 213.0000
232 -71.0000 284.0000
233 404.0000 -414.0000
234 291.0000 -425.0000
235 -160.0000  -9.0000
236 -31.0000 450.0000
237 -232.0000 367.0000
238 -459.0000 333.0000
239 428.0000 -497.0000
240  54.0000 -494.0000
241 439.0000 185.0000
242 -211.0000 -395.0000
243  87.0000 328.0000
244  35.0000 -47.0000
245 138.0000  54.0000
246 -151.0000  36.0000
247  52.0000 107.0000
248 -296.0000 238.0000
249 -370.0000  31.0000
250 -341.0000 310.0000
251  97.0000 201.0000
252  33.0000 374.0000
253 155.0000 -112.0000
254 -209.0000 472.0000
255 -447.0000 -461.0000
256 -347.0000 -127.0000
257 190.0000 356.0000
258 -80.0000 -435.0000
259 115.0000 162.0000
260  57.0000 483.0000
261   0.0000 -17.0000
262  59.0000 -246.0000
263 209.0000 495.0000
264 -414.0000 -452.0000
265 124.0000 -358.0000
266 -173.0000  10.0000
267 -238.0000 -76.0000
268 -490.0000 -151.0000
269 429.0000 -253.0000
270 -341.0000 -269.0000
271 -471.0000 -352.0000
272 436.0000 472.0000
273 405.0000 482.0000
274 -353.0000 -153.0000
275 -484.0000 -473.0000
276 -336.0000 -152.0000
277  23.0000 213.0000
278 -292.0000 -292.0000
279 -499.0000 -184.0000
280 168.0000 -281.0000
281 -314.0000 372.0000
282  75.0000 236.0000
283 -348.0000 -330.0000
284 -319.0000 -79.0000
285 203.0000 134.0000
286 362.0000 -387.0000
287 235.0000 448.0000
288 258.0000 392.0000
289 -220.0000 -117.0000
290 242.0000  90.0000
291 193.0000  32.0000
292 -216.0000 -329.0000
293 -129.0000 383.0000
294  82.0000 328.0000
295 -488.0000 327.0000
296 104.0000 -43.0000
297 139.0000 445.0000
298 -333.0000 -294.0000
299 455.0000 376.0000
300 352.0000 -48.0000
DISPLAY_DATA_SECTION:
 1  250  250
 2  113   63
 3   64  116
 4  339  484
 5  388    2
 6  461  393
 7    0   68
 8   92  294
 9  169  480
10  250  220
11  422  401
12  350  126
13  236   45
14  441  292
15  194  486
16  381  407
17  387  360
18  300  293
19   96  392
20  354   24
21  491  470
22  185  255
23   82  443
24  298  157
25  457  354
26   10  435
27  202  316
28  371  472
29  187  152
30  287   87
31  347  311
32   99   52
33   30   10
34  114   56
35  494  278
36  294  341
37  134  405
38  415   31
39  203  364
40  418  398
41   39  157
42  154  496
43  455   38
44  482  401
45  276    3
46  431  393
47  324  437
48   89   74
49  480  254
50  489  328
51  187  214
52  230  211
53  123  222
54   97  245
55   15  480
56  271  237
57  263  290
58  497   35
59  268  405
60  312  441
61  413    7
62  236  315
63   16  100
64  303  367
65  418  330
66   86   49
67  457   48
68  266  414
69  468  170
70  398  232
71   26  231
72  210  166
73  373  179
74  429   33
75   85   43
76  440  392
77  400  171
78  174   72
79   12  212
80  260  137
81  153  312
82   57  354
83  142   71
84  191  387
85  115  400
86  478   61
87  413  385
88    2  101
89    8   79
90   97  318
91  287   25
92  363  327
93  170  256
94  208  465
95  110  245
96  360  127
97  386   60
98  394  379
99  165  137
100  173  220
101  249   48
102  336  263
103  439  385
104  216   79
105   54   35
106  104  298
107  189   99
108  456  356
109  167  157
110  144  106
111   41  115
112   72  433
113  336  265
114  197  190
115    3   41
116  483   47
117   73  235
118  466  451
119  456  353
120  220   58
121   57  422
122  164  344
123  463  341
124  316  481
125  463  487
126  161  491
127  125  297
128  396  111
129  345  139
130  175  465
131  487  102
132  122  119
133  414  217
134  467   85
135  368  352
136  144  388
137  425  404
138  364  293
139  449    3
140  302  357
141  409  377
142   11  427
143  235  177
144   15  337
145  271  263
146  142  464
147    1  122
148  309  112
149  379  116
150  279  472
151  400  121
152  191  340
153  464  362
154  248  328
155   76  245
156  191   64
157  486  327
158   90  454
159   98  233
160  378   60
161  132  468
162   23  145
163  133   39
164  145  242
165  321  310
166  218  234
167   15  346
168  359  190
169  488   44
170  351   98
171  359  439
172   59  302
173  186  206
174  250  426
175  494  471
176    0  151
177   40  302
178   83  346
179  176    6
180  297  345
181  372  159
182  440  104
183  193    1
184   28  254
185  326  100
186  203  215
187  482   17
188  281  196
189  129  249
190  451  193
191  408  105
192  314  253
193  273  102
194  344  335
195  241  351
196  350   66
197   23  274
198  209  285
199  423  275
200  415  121
201  318  132
202  403  487
203  102  202
204  381  256
205  330   61
206  261  420
207  142  260
208  283   16
209    1  419
210  403  229
211  260   78
212   35   51
213  316  135
214  397  171
215   92  380
216  384   33
217  200  412
218  195  221
219  310  164
220  453   36
221  319  381
222  356    2
223   90  272
224  172  280
225  257  442
226  349  492
227  369   19
228  269  490
229  149  359
230  484    6
231   60  356
232  214  392
233  452   43
234  395   37
235  170  245
236  234  475
237  134  433
238   20  416
239  464    1
240  277    3
241  469  342
242  144   52
243  293  414
244  267  226
245  319  277
246  174  268
247  276  303
248  102  369
249   65  265
250   79  405
251  298  350
252  266  437
253  327  194
254  145  486
255   26   19
256   76  186
257  345  428
258  210   32
259  307  331
260  278  491
261  250  241
262  279  127
263  354  497
264   43   24
265  312   71
266  163  255
267  131  212
268    5  174
269  464  123
270   79  115
271   14   74
272  468  486
273  452  491
274   73  173
275    8   13
276   82  174
277  261  356
278  104  104
279    0  158
280  334  109
281   93  436
282  287  368
283   76   85
284   90  210
285  351  317
286  431   56
287  367  474
288  379  446
289  140  191
290  371  295
291  346  266
292  142   85
293  185  441
294  291  414
295    6  413
296  302  228
297  319  472
298   83  103
299  477  438
300  426  226
DEMAND_SECTION
1 9
2 0
3 2
4 0
5 -2
6 -7
7 1
8 5
9 8
10 8
11 4
12 -2
13 5
14 0
15 -9
16 -1
17 -1
18 0
19 -6
20 3
21 0
22 -8
23 -7
24 -5
25 -5
26 -6
27 8
28 -4
29 -5
30 0
31 1
32 -6
33 4
34 -2
35 -7
36 0
37 7
38 10
39 -5
40 0
41 -10
42 6
43 -1
44 -6
45 -10
46 -7
47 9
48 0
49 -8
50 -5
51 -5
52 2
53 -7
54 -3
55 8
56 10
57 0
58 -6
59 6
60 4
61 0
62 -6
63 3
64 -9
65 3
66 -3
67 4
68 -4
69 2
70 2
71 1
72 -7
73 -7
74 -1
75 6
76 -3
77 -7
78 7
79 -5
80 -5
81 2
82 5
83 5
84 2
85 -4
86 8
87 -1
88 6
89 5
90 0
91 3
92 8
93 -5
94 -7
95 2
96 -8
97 -4
98 -6
99 -2
100 -10
101 7
102 6
103 -1
104 -4
105 5
106 7
107 -2
108 -3
109 0
110 2
111 3
112 -9
113 2
114 -4
115 10
116 10
117 7
118 -1
119 -3
120 8
121 6
122 4
123 -9
124 9
125 -8
126 -1
127 -8
128 7
129 0
130 -3
131 -3
132 0
133 9
134 -2
135 3
136 5
137 3
138 5
139 -4
140 -1
141 5
142 5
143 4
144 -1
145 -6
146 1
147 7
148 9
149 5
150 6
151 10
152 0
153 -1
154 0
155 -3
156 9
157 -7
158 -7
159 8
160 -5
161 5
162 -1
163 9
164 0
165 7
166 -8
167 7
168 -2
169 -3
170 0
171 -7
172 9
173 -6
174 -5
175 -5
176 -4
177 0
178 3
179 -3
180 -5
181 -1
182 -4
183 4
184 -7
185 8
186 0
187 3
188 2
189 -8
190 -9
191 -10
192 9
193 7
194 -8
195 1
196 -5
197 8
198 7
199 -2
200 -5
201 2
202 -2
203 -10
204 2
205 5
206 -4
207 -5
208 3
209 -8
210 0
211 1
212 0
213 7
214 6
215 -7
216 5
217 0
218 -7
219 -3
220 -5
221 -10
222 -2
223 -1
224 -10
225 -9
226 -9
227 -2
228 -7
229 -6
230 -3
231 6
232 -7
233 5
234 0
235 -3
236 0
237 0
238 -4
239 0
240 -5
241 4
242 8
243 -4
244 5
245 1
246 2
247 2
248 10
249 2
250 -3
251 6
252 -7
253 -8
254 -1
255 -10
256 6
257 5
258 2
259 -2
260 -1
261 7
262 0
263 4
264 8
265 7
266 -5
267 -3
268 -6
269 9
270 4
271 5
272 9
273 3
274 9
275 6
276 4
277 0
278 -3
279 -9
280 0
281 -2
282 3
283 3
284 6
285 0
286 -1
287 9
288 7
289 3
290 7
291 -6
292 -5
293 -7
294 2
295 3
296 -6
297 7
298 -9
299 4
300 -3
EOF